
Gurobi 12.0.2 (win64) logging started Mon Nov 10 20:25:02 2025

Set parameter LogFile to value "C:\Ioana\_uni\honours\slp\algorithm\Main_files\results\respiration_paracetamol\Task_002_Sample007_irr_gurobi.log"
Gurobi Optimizer version 12.0.2 build v12.0.2rc0 (win64 - Windows 11.0 (26100.2))

CPU model: Intel(R) Core(TM) Ultra 5 125H, instruction set [SSE2|AVX|AVX2]
Thread count: 14 physical cores, 18 logical processors, using up to 18 threads

Non-default parameters:
TimeLimit  2200

Optimize a model with 47236 rows, 34507 columns and 146717 nonzeros
Model fingerprint: 0xebb6480a
Variable types: 17258 continuous, 17249 integer (17249 binary)
Coefficient statistics:
  Matrix range     [1e-04, 8e+04]
  Objective range  [1e-04, 1e+01]
  Bounds range     [1e+00, 1e+03]
  RHS range        [1e+00, 1e+00]
Presolve removed 30792 rows and 21554 columns
Presolve time: 0.32s
Presolved: 16444 rows, 12953 columns, 54671 nonzeros
Variable types: 6409 continuous, 6544 integer (6544 binary)

Root relaxation: objective 1.778728e-04, 734 iterations, 0.03 seconds (0.04 work units)

    Nodes    |    Current Node    |     Objective Bounds      |     Work
 Expl Unexpl |  Obj  Depth IntInf | Incumbent    BestBd   Gap | It/Node Time

     0     0    0.00018    0   10          -    0.00018      -     -    0s
H    0     0                       0.1181366    0.00018   100%     -    0s
     0     0    0.02075    0   20    0.11814    0.02075  82.4%     -    0s
     0     0    0.02075    0   10    0.11814    0.02075  82.4%     -    0s
     0     0    0.06769    0   12    0.11814    0.06769  42.7%     -    0s
     0     0    0.08837    0   12    0.11814    0.08837  25.2%     -    0s
     0     0    0.10070    0   12    0.11814    0.10070  14.8%     -    1s
     0     0    0.10077    0    6    0.11814    0.10077  14.7%     -    1s
     0     0    0.10077    0   12    0.11814    0.10077  14.7%     -    1s
     0     0     cutoff    0         0.11814    0.11814  0.00%     -    1s

Cutting planes:
  Cover: 5
  MIR: 9
  Flow cover: 23
  Flow path: 5
  Relax-and-lift: 1

Explored 1 nodes (3128 simplex iterations) in 1.10 seconds (1.08 work units)
Thread count was 18 (of 18 available processors)

Solution count 1: 0.118137 

Optimal solution found (tolerance 1.00e-04)
Best objective 1.181366414782e-01, best bound 1.181366414782e-01, gap 0.0000%
